NAME: random84
TYPE: TSP
DIMENSION: 84
EDGE_WEIGHT_TYPE: EXPLICIT
EDGE_WEIGHT_FORMAT: FULL_MATRIX
EDGE_WEIGHT_SECTION
0 645 645 17 645 645 645 645 645 645 645 645 645 645 645 645 27 645 17 645 33 645 645 21 645 25 645 645 645 33 645 645 645 61 645 9 41 645 19 645 645 645 26 645 645 22 645 645 645 28 645 645 645 645 645 645 645 645 645 645 645 645 645 645 28 645 645 645 645 24 25 10 645 645 645 15 645 645 645 645 29 645 13 645
645 0 645 645 645 14 645 645 645 645 645 40 24 645 645 645 645 22 15 645 11 645 645 645 645 18 645 22 645 24 645 35 645 42 645 645 645 645 14 33 645 645 645 645 645 13 645 645 21 645 645 645 645 31 645 645 3 13 645 42 645 14 645 10 645 645 7 645 36 645 24 645 645 33 645 18 645 645 645 18 645 645 20 645
645 645 0 645 645 645 17 645 645 6 645 645 645 645 1 645 645 645 645 645 645 15 645 645 645 645 645 645 14 645 645 645 645 645 645 645 645 645 645 645 645 645 645 645 645 645 645 645 645 645 29 9 645 645 52 645 645 645 35 645 645 645 645 645 645 36 645 6 645 645 645 645 8 645 645 645 35 645 645 645 645 645 645 645
17 645 645 0 645 26 645 645 645 645 645 645 645 645 645 645 16 645 24 17 645 645 645 16 645 38 645 645 645 645 645 645 19 645 645 16 26 645 645 645 645 27 11 645 645 645 645 645 645 16 645 645 645 645 38 645 645 645 645 645 27 645 645 645 12 645 645 645 645 15 40 18 645 645 645 25 645 27 645 645 21 645 20 645
645 645 645 645 0 645 645 645 645 52 20 645 645 23 645 19 645 645 645 11 645 645 15 645 25 645 29 645 645 645 645 645 9 645 645 645 23 645 645 645 14 15 19 645 645 645 645 645 645 22 645 49 645 645 11 645 645 645 24 645 26 645 35 645 20 23 645 645 645 645 645 645 645 645 645 645 645 4 645 645 645 645 645 645
645 14 645 26 645 0 645 645 645 645 645 645 645 645 645 645 17 645 13 645 24 645 645 645 19 645 645 17 645 645 645 645 645 645 645 645 645 8 11 645 645 645 24 645 645 19 645 645 645 17 645 645 645 645 645 645 11 16 645 645 16 6 645 9 645 645 8 645 645 645 645 18 645 645 645 17 645 645 645 12 10 645 15 21
645 645 17 645 645 645 0 40 57 645 37 645 645 34 645 645 645 645 645 645 645 3 645 645 645 645 645 645 5 645 38 645 645 645 645 645 645 645 645 645 645 645 645 43 31 645 645 645 645 645 16 20 645 645 645 645 645 645 39 645 645 645 45 645 645 34 645 11 645 645 645 645 9 645 34 645 19 645 50 645 645 645 645 645
645 645 645 645 645 645 40 0 40 645 36 645 42 33 645 29 645 645 645 645 645 42 645 645 645 645 21 20 39 645 19 32 645 645 645 645 645 645 645 645 33 645 645 35 18 645 12 5 28 645 24 645 37 645 645 645 645 645 645 46 645 645 13 645 645 34 645 645 8 645 645 645 645 645 27 645 23 645 42 645 645 645 645 21
645 645 645 645 645 645 57 40 0 645 645 82 645 645 645 645 645 645 645 645 645 59 645 645 645 645 645 645 645 645 24 36 645 645 12 645 645 645 645 61 645 645 645 15 30 645 645 645 47 645 645 645 10 48 645 8 645 645 645 41 645 645 645 645 645 645 645 645 40 645 645 645 645 645 645 645 41 645 12 645 645 645 645 645
645 645 6 645 52 645 645 645 645 0 34 645 645 32 5 42 645 645 645 645 645 19 37 645 645 645 645 645 16 645 645 645 645 645 645 645 645 645 645 645 49 645 645 645 645 645 645 645 645 645 29 3 645 645 47 645 645 645 29 645 645 645 645 645 645 31 645 9 645 645 645 645 11 645 645 645 645 55 645 645 645 645 645 645
645 645 645 645 20 645 37 36 645 34 0 645 645 4 37 11 645 645 645 645 645 645 7 645 27 645 26 645 33 645 645 645 26 645 645 645 645 645 645 645 16 645 645 645 645 645 645 645 645 645 29 30 645 645 20 645 645 645 11 645 645 645 29 645 645 3 645 36 645 645 645 645 645 645 9 645 645 24 645 645 645 645 645 645
645 40 645 645 645 645 645 645 82 645 645 0 32 645 645 645 645 19 645 645 32 645 645 645 645 37 645 645 645 30 81 48 645 6 74 645 645 645 645 21 645 645 645 645 645 645 645 645 645 645 645 645 73 35 645 88 645 47 645 42 645 645 645 645 645 645 645 645 645 645 38 645 645 29 645 645 645 645 645 645 645 34 645 645
645 24 645 645 645 645 645 42 645 645 645 32 0 645 645 645 645 21 645 645 26 645 645 645 645 37 645 30 645 37 49 17 645 37 47 645 645 645 645 13 645 645 645 645 645 35 40 645 15 645 645 645 44 7 645 645 25 21 645 19 645 31 645 34 645 645 27 645 34 645 645 645 645 10 645 645 645 645 645 31 645 10 645 44
645 645 645 645 23 645 34 33 645 32 4 645 645 0 645 10 645 645 645 645 645 36 11 645 645 645 25 645 30 645 645 645 645 645 645 645 645 645 645 645 17 645 645 645 41 645 645 33 645 645 25 29 645 645 24 645 645 645 13 645 645 645 27 645 645 1 645 34 645 645 645 645 645 645 5 645 34 645 645 645 645 645 645 26
645 645 1 645 645 645 645 645 645 5 37 645 645 645 0 645 645 645 645 645 645 15 41 645 645 645 645 645 13 645 645 645 645 645 645 645 645 645 645 645 645 645 645 645 645 645 645 645 645 645 28 8 645 645 51 645 645 645 34 645 645 645 645 645 645 34 645 5 645 645 645 645 7 645 645 645 645 645 645 645 645 645 645 645
645 645 645 645 19 645 645 29 645 42 11 645 645 10 645 0 645 645 645 645 645 645 15 645 16 645 16 30 38 645 645 645 22 645 645 645 645 645 645 645 8 645 645 645 645 645 22 28 645 24 29 39 645 645 25 645 645 645 21 645 19 645 19 645 645 11 645 645 33 645 645 645 645 645 8 645 37 23 645 645 645 645 645 16
27 645 645 16 645 17 645 645 645 645 645 645 645 645 645 645 0 645 23 14 645 645 645 32 13 645 645 645 645 645 645 645 15 645 645 30 34 12 22 645 18 31 8 645 645 31 645 645 645 1 645 645 645 645 645 645 645 645 645 645 11 20 645 23 21 645 645 645 645 30 42 22 645 645 645 26 645 24 645 22 8 645 21 19
645 22 645 645 645 645 645 645 645 645 645 19 21 645 645 645 645 0 645 645 13 645 645 645 645 21 645 41 645 18 645 38 645 21 68 645 645 645 31 19 645 645 645 645 645 24 645 645 31 645 645 645 65 27 645 645 25 30 645 38 645 645 645 29 645 645 28 645 645 645 24 645 645 24 645 32 645 645 645 645 645 28 645 645
17 15 645 24 645 13 645 645 645 645 645 645 645 645 645 645 23 645 0 645 19 645 645 645 645 16 645 645 645 25 645 645 645 645 645 645 645 20 2 645 645 645 645 645 645 9 645 645 645 645 645 645 645 645 645 645 15 645 645 645 645 645 645 6 645 645 14 645 645 645 20 8 645 645 645 5 645 645 645 645 19 645 4 645
645 645 645 17 11 645 645 645 645 645 645 645 645 645 645 645 14 645 645 0 645 645 25 29 21 645 27 645 645 645 645 645 2 645 645 645 22 645 645 645 16 17 8 645 645 645 645 645 645 13 645 645 645 645 22 645 645 645 645 645 21 645 645 645 12 645 645 645 645 25 645 32 645 645 645 645 645 11 645 645 21 645 32 645
33 11 645 645 645 24 645 645 645 645 645 32 26 645 645 645 645 13 19 645 0 645 645 645 645 11 645 645 645 13 645 645 645 32 645 645 645 645 18 30 645 645 645 645 645 11 645 645 29 645 645 645 645 645 645 645 14 23 645 645 645 645 645 16 645 645 18 645 645 645 16 645 645 33 645 18 645 645 645 645 645 645 23 645
645 645 15 645 645 645 3 42 59 19 645 645 645 36 15 645 645 645 645 645 645 0 645 645 645 645 645 645 6 645 40 645 645 645 70 645 645 645 645 645 645 645 645 44 33 645 645 645 645 645 19 20 63 645 645 64 645 645 645 645 645 645 645 645 645 37 645 10 645 645 645 645 8 645 37 645 21 645 51 645 645 645 645 645
645 645 645 645 15 645 645 645 645 37 7 645 645 11 41 15 645 645 645 25 645 645 0 645 29 645 30 645 40 645 645 645 23 645 645 645 36 645 645 645 17 28 645 645 645 645 645 645 645 32 36 34 645 645 12 645 645 645 9 645 645 645 34 645 645 11 645 645 645 645 645 645 645 645 16 645 645 18 645 645 645 645 645 31
21 645 645 16 645 645 645 645 645 645 645 645 645 645 645 645 32 645 645 29 645 645 645 0 645 645 645 645 645 645 645 645 645 645 645 13 24 645 645 645 645 30 26 645 645 645 645 645 645 645 645 645 645 645 45 645 645 645 645 645 645 645 645 645 18 645 645 645 645 5 46 28 645 645 645 36 645 645 645 645 645 645 645 645
645 645 645 645 25 19 645 645 645 645 27 645 645 645 645 16 13 645 645 21 645 645 29 645 0 645 6 18 645 645 645 645 20 645 645 645 645 10 645 645 12 645 19 645 645 645 15 24 645 13 645 645 645 645 645 645 645 26 645 645 3 18 14 645 645 645 645 645 645 645 645 645 645 645 23 645 645 28 645 16 11 645 30 6
25 18 645 38 645 645 645 645 645 645 645 37 37 645 645 645 645 21 16 645 11 645 645 645 645 0 645 645 645 8 645 645 645 36 645 35 645 645 17 645 645 645 645 645 645 8 645 645 645 645 645 645 645 645 645 645 21 645 645 645 645 645 645 17 645 645 645 645 645 645 6 20 645 645 645 13 645 645 645 645 645 645 19 645
645 645 645 645 29 645 645 21 645 645 26 645 645 25 645 16 645 645 645 27 645 645 30 645 6 645 0 15 645 645 645 645 26 645 645 645 645 14 645 645 15 645 645 645 645 645 9 17 645 19 34 645 645 645 38 645 645 645 37 645 8 645 8 645 645 645 645 645 21 645 645 645 645 645 21 645 645 645 645 15 16 645 645 1
645 22 645 645 645 17 645 20 645 645 645 645 30 645 645 30 645 41 645 645 645 645 645 645 18 645 15 0 645 645 37 29 645 645 645 645 645 15 645 645 645 645 645 645 645 645 12 15 16 27 645 645 47 34 645 645 19 11 645 645 17 11 14 645 645 645 17 645 15 645 645 645 645 645 645 645 645 645 645 6 19 645 645 14
645 645 14 645 645 645 5 39 645 16 33 645 645 30 13 38 645 645 645 645 645 6 40 645 645 645 645 645 0 645 645 645 645 645 645 645 645 645 645 645 645 645 645 46 33 645 645 645 645 645 15 16 645 645 51 645 645 645 34 645 645 645 645 645 645 30 645 9 645 645 645 645 8 645 31 645 20 645 53 645 645 645 645 645
33 24 645 645 645 645 645 645 645 645 645 30 37 645 645 645 645 18 25 645 13 645 645 645 645 8 645 645 645 0 645 645 645 28 645 42 645 645 645 37 645 645 645 645 645 16 645 645 645 645 645 645 645 645 645 645 645 36 645 55 645 645 645 25 645 645 645 645 645 645 8 28 645 645 645 22 645 645 645 645 645 645 645 645
645 645 645 645 645 645 38 19 24 645 645 81 49 645 645 645 645 645 645 645 645 40 645 645 645 645 645 37 645 645 0 34 645 645 32 645 645 645 645 645 645 645 645 16 7 645 31 23 38 645 27 645 24 47 645 31 645 44 645 45 645 645 31 645 645 645 645 645 22 645 645 645 645 645 42 645 20 645 23 645 645 49 645 645
645 35 645 645 645 645 645 32 36 645 645 48 17 645 645 645 645 38 645 645 645 645 645 645 645 645 645 29 645 645 34 0 645 645 31 645 645 645 645 27 645 645 645 43 40 645 35 30 15 645 645 645 27 13 645 43 35 25 645 14 645 645 37 645 645 645 645 645 25 645 645 645 645 20 645 645 51 645 46 32 645 15 645 42
645 645 645 19 9 645 645 645 645 645 26 645 645 645 645 22 15 645 645 2 645 645 23 645 20 645 26 645 645 645 645 645 0 645 645 645 22 645 645 645 14 17 10 645 645 645 645 645 645 14 645 645 645 645 20 645 645 645 32 645 21 645 645 645 14 645 645 645 645 645 645 645 645 645 645 645 645 10 645 645 22 645 645 26
61 42 645 645 645 645 645 645 645 645 645 6 37 645 645 645 645 21 645 645 32 645 645 645 645 36 645 645 645 28 645 645 645 0 79 645 645 645 645 27 645 645 645 645 645 42 645 645 645 645 645 645 645 645 645 645 645 645 645 47 645 645 645 645 645 645 645 645 645 645 36 645 645 34 645 48 645 645 645 645 645 645 645 645
645 645 645 645 645 645 645 645 12 645 645 74 47 645 645 645 645 68 645 645 645 70 645 645 645 645 645 645 645 645 32 31 645 79 0 645 645 645 645 53 645 645 645 27 39 645 645 645 645 645 645 645 8 41 645 14 645 645 645 32 645 645 645 645 645 645 645 645 42 645 645 645 645 45 645 645 645 645 24 645 645 40 645 645
9 645 645 16 645 645 645 645 645 645 645 645 645 645 645 645 30 645 645 645 645 645 645 13 645 35 645 645 645 42 645 645 645 645 645 0 35 645 645 645 645 645 27 645 645 32 645 645 645 645 645 645 645 645 645 645 645 645 645 645 645 645 645 645 25 645 645 645 645 16 34 18 645 645 645 25 645 645 645 645 645 645 22 645
41 645 645 26 23 645 645 645 645 645 645 645 645 645 645 645 34 645 645 22 645 645 36 24 645 645 645 645 645 645 645 645 22 645 645 35 0 645 645 645 645 8 26 645 645 645 645 645 645 33 645 645 645 645 25 645 645 645 645 645 645 645 645 645 14 645 645 645 645 20 645 645 645 645 645 645 645 19 645 645 645 645 645 645
645 645 645 645 645 8 645 645 645 645 645 645 645 645 645 645 12 645 20 645 645 645 645 645 10 645 14 15 645 645 645 645 645 645 645 645 645 0 18 645 22 645 19 645 645 645 20 645 29 12 645 645 645 645 645 645 19 19 645 645 8 9 645 17 645 645 15 645 645 645 645 23 645 645 645 645 645 645 645 11 4 645 21 14
19 14 645 645 645 11 645 645 645 645 645 645 645 645 645 645 22 31 2 645 18 645 645 645 645 17 645 645 645 645 645 645 645 645 645 645 645 18 0 645 645 645 645 645 645 9 645 645 645 23 645 645 645 645 645 645 13 23 645 645 26 16 645 4 645 645 12 645 645 645 21 10 645 645 645 6 645 645 645 645 18 645 6 645
645 33 645 645 645 645 645 645 61 645 645 21 13 645 645 645 645 19 645 645 30 645 645 645 645 645 645 645 645 37 645 27 645 27 53 645 645 645 645 0 645 645 645 645 645 41 645 645 28 645 645 645 52 14 645 645 35 33 645 21 645 645 645 645 645 645 645 645 645 645 43 645 645 8 645 645 645 645 645 645 645 13 645 645
645 645 645 645 14 645 645 33 645 49 16 645 645 17 645 8 18 645 645 16 645 645 17 645 12 645 15 645 645 645 645 645 14 645 645 645 645 22 645 645 0 29 19 645 645 645 23 645 645 17 645 645 645 645 23 645 645 645 25 645 14 645 21 645 28 18 645 645 645 645 645 645 645 645 15 645 645 18 645 28 20 645 645 15
645 645 645 27 15 645 645 645 645 645 645 645 645 645 645 645 31 645 645 17 645 645 28 30 645 645 645 645 645 645 645 645 17 645 645 645 8 645 645 645 29 0 24 645 645 645 645 645 645 30 645 645 645 645 17 645 645 645 34 645 645 645 645 645 15 645 645 645 645 25 645 645 645 645 645 645 645 11 645 645 645 645 645 645
26 645 645 11 19 24 645 645 645 645 645 645 645 645 645 645 8 645 645 8 645 645 645 26 19 645 645 645 645 645 645 645 10 645 645 27 26 19 645 645 19 24 0 645 645 645 645 645 645 7 645 645 645 645 30 645 645 645 645 645 18 645 645 645 13 645 645 645 645 23 645 24 645 645 645 30 645 19 645 645 15 645 24 645
645 645 645 645 645 645 43 35 15 645 645 645 645 645 645 645 645 645 645 645 645 44 645 645 645 645 645 645 46 645 16 43 645 645 27 645 645 645 645 645 645 645 645 0 19 645 645 39 645 645 37 645 22 645 645 20 645 645 645 52 645 645 645 645 645 645 645 645 37 645 645 645 52 645 56 645 28 645 8 645 645 645 645 645
645 645 645 645 645 645 31 18 30 645 645 645 645 41 645 645 645 645 645 645 645 33 645 645 645 645 645 645 33 645 7 40 645 645 39 645 645 645 645 645 645 645 645 19 0 645 30 23 42 645 20 645 31 645 645 37 645 645 645 645 645 645 30 645 645 645 645 645 23 645 645 645 645 645 37 645 12 645 27 645 645 645 645 645
22 13 645 645 645 19 645 645 645 645 645 645 35 645 645 645 31 24 9 645 11 645 645 645 645 8 645 645 645 16 645 645 645 42 645 32 645 645 9 41 645 645 645 645 645 0 645 645 645 645 645 645 645 645 645 645 14 25 645 645 645 22 645 9 645 645 16 645 645 645 13 15 645 645 645 7 645 645 645 645 27 645 12 645
645 645 645 645 645 645 645 12 645 645 645 645 40 645 645 22 645 645 645 645 645 645 645 645 15 645 9 12 645 645 31 35 645 645 645 645 645 20 645 645 23 645 645 645 30 645 0 8 25 645 30 645 645 645 645 645 645 23 645 645 17 21 2 645 645 645 645 645 12 645 645 645 645 645 24 645 645 645 645 15 645 645 645 9
645 645 645 645 645 645 645 5 645 645 645 645 645 33 645 28 645 645 645 645 645 645 645 645 24 645 17 15 645 645 23 30 645 645 645 645 645 645 645 645 645 645 645 39 23 645 8 0 24 645 28 645 39 645 645 645 645 25 645 645 645 645 10 645 645 645 645 645 6 645 645 645 645 645 28 645 28 645 645 21 645 645 645 17
645 21 645 645 645 645 645 28 47 645 645 645 15 645 645 645 645 31 645 645 29 645 645 645 645 645 645 16 645 645 38 15 645 645 645 645 645 29 645 28 645 645 645 645 42 645 25 24 0 645 645 645 39 18 645 645 20 11 645 26 33 21 28 29 645 645 21 645 20 645 645 645 645 24 645 645 645 645 645 18 645 21 645 30
28 645 645 16 22 17 645 645 645 645 645 645 645 645 645 24 1 645 645 13 645 645 32 645 13 645 19 27 645 645 645 645 14 645 645 645 33 12 23 645 17 30 7 645 645 645 645 645 645 0 645 645 645 645 33 645 645 645 645 645 11 21 27 645 20 645 645 645 645 30 645 23 645 645 645 27 645 24 645 23 8 645 22 19
645 645 29 645 645 645 16 24 645 29 29 645 645 25 28 29 645 645 645 645 645 19 36 645 645 645 34 645 15 645 27 645 645 645 645 645 645 645 645 645 645 645 645 37 20 645 30 28 645 645 0 28 645 645 645 645 645 645 34 645 645 645 29 645 645 26 645 24 32 645 645 645 23 645 23 645 9 645 45 645 645 645 645 645
645 645 9 645 49 645 20 645 645 3 30 645 645 29 8 39 645 645 645 645 645 20 34 645 645 645 645 645 16 645 645 645 645 645 645 645 645 645 645 645 645 645 645 645 645 645 645 645 645 645 28 0 645 645 44 645 645 645 26 645 645 645 645 645 645 28 645 11 645 645 645 645 13 645 32 645 35 645 645 645 645 645 645 645
645 645 645 645 645 645 645 37 10 645 645 73 44 645 645 645 645 65 645 645 645 63 645 645 645 645 645 47 645 645 24 27 645 645 8 645 645 645 645 52 645 645 645 22 31 645 645 39 39 645 645 645 0 39 645 16 645 645 645 31 645 645 645 645 645 645 645 645 35 645 645 645 645 44 645 645 43 645 21 645 645 39 645 645
645 31 645 645 645 645 645 645 48 645 645 35 7 645 645 645 645 27 645 645 645 645 645 645 645 645 645 34 645 645 47 13 645 645 41 645 645 645 645 14 645 645 645 645 645 645 645 645 18 645 645 645 39 0 645 645 645 26 645 11 645 645 645 645 645 645 645 645 35 645 645 645 645 7 645 645 645 645 645 645 645 3 645 645
645 645 52 38 11 645 645 645 645 47 20 645 645 24 51 25 645 645 645 22 645 645 12 45 645 645 38 645 51 645 645 645 20 645 645 645 25 645 645 645 23 17 30 645 645 645 645 645 645 33 645 44 645 645 0 645 645 645 18 645 645 645 645 645 28 23 645 52 645 40 645 645 645 645 645 645 645 11 645 645 645 645 645 645
645 645 645 645 645 645 645 645 8 645 645 88 645 645 645 645 645 645 645 645 645 64 645 645 645 645 645 645 645 645 31 43 645 645 14 645 645 645 645 645 645 645 645 20 37 645 645 645 645 645 645 645 16 645 645 0 645 645 645 46 645 645 645 645 645 645 645 645 645 645 645 645 645 645 645 645 47 645 13 645 645 645 645 645
645 3 645 645 645 11 645 645 645 645 645 645 25 645 645 645 645 25 15 645 14 645 645 645 645 21 645 19 645 645 645 35 645 645 645 645 645 19 13 35 645 645 645 645 645 14 645 645 20 645 645 645 645 645 645 645 0 11 645 645 645 11 645 9 645 645 3 645 645 645 645 645 645 645 645 645 645 645 645 15 645 645 19 645
645 13 645 645 645 16 645 645 645 645 645 47 21 645 645 645 645 30 645 645 23 645 645 645 26 645 645 11 645 36 44 25 645 645 645 645 645 19 23 33 645 645 645 645 645 25 23 25 11 645 645 645 645 26 645 645 11 0 645 36 25 11 25 19 645 645 11 645 23 645 645 645 645 31 645 645 645 645 645 10 23 645 645 24
645 645 35 645 24 645 39 645 645 29 11 645 645 13 34 21 645 645 645 645 645 645 9 645 645 645 37 645 34 645 645 645 32 645 645 645 645 645 645 645 25 34 645 645 645 645 645 645 645 645 34 26 645 645 18 645 645 645 0 645 645 645 645 645 645 12 645 35 645 645 645 645 37 645 19 645 645 26 645 645 645 645 645 645
645 42 645 645 645 645 645 46 41 645 645 42 19 645 645 645 645 38 645 645 645 645 645 645 645 645 645 645 645 55 45 14 645 47 32 645 645 645 645 21 645 645 645 52 645 645 645 645 26 645 645 645 31 11 645 46 645 36 645 0 645 645 645 645 645 645 645 645 39 645 645 645 645 14 645 645 645 645 52 645 645 9 645 645
645 645 645 27 26 16 645 645 645 645 645 645 645 645 645 19 11 645 645 21 645 645 645 645 3 645 8 17 645 645 645 645 21 645 645 645 645 8 26 645 14 645 18 645 645 645 17 645 33 11 645 645 645 645 645 645 645 25 645 645 0 16 16 645 645 645 23 645 28 645 645 29 645 645 645 645 645 645 645 15 8 645 28 8
645 14 645 645 645 6 645 645 645 645 645 645 31 645 645 645 20 645 645 645 645 645 645 645 18 645 645 11 645 645 645 645 645 645 645 645 645 9 16 645 645 645 645 645 645 22 21 645 21 21 645 645 645 645 645 645 11 11 645 645 16 0 645 14 645 645 8 645 26 645 645 645 645 645 645 645 645 645 645 6 13 645 21 18
645 645 645 645 35 645 45 13 645 645 29 645 645 27 645 19 645 645 645 645 645 645 34 645 14 645 8 14 645 645 31 37 645 645 645 645 645 645 645 645 21 645 645 645 30 645 2 10 28 27 29 645 645 645 645 645 645 25 645 645 16 645 0 645 645 28 645 645 14 645 645 645 645 645 21 645 32 645 645 17 645 645 645 8
645 10 645 645 645 9 645 645 645 645 645 645 34 645 645 645 23 29 6 645 16 645 645 645 645 17 645 645 645 25 645 645 645 645 645 645 645 17 4 645 645 645 645 645 645 9 645 645 29 645 645 645 645 645 645 645 9 19 645 645 645 14 645 0 645 645 8 645 645 645 645 645 645 645 645 10 645 645 645 19 18 645 10 645
28 645 645 12 20 645 645 645 645 645 645 645 645 645 645 645 21 645 645 12 645 645 645 18 645 645 645 645 645 645 645 645 14 645 645 25 14 645 645 645 28 15 13 645 645 645 645 645 645 20 645 645 645 645 28 645 645 645 645 645 645 645 645 645 0 645 645 645 645 13 645 30 645 645 645 645 645 18 645 645 28 645 32 645
645 645 36 645 23 645 34 34 645 31 3 645 645 1 34 11 645 645 645 645 645 37 11 645 645 645 645 645 30 645 645 645 645 645 645 645 645 645 645 645 18 645 645 645 645 645 645 645 645 645 26 28 645 645 23 645 645 645 12 645 645 645 28 645 645 0 645 34 645 645 645 645 35 645 7 645 35 645 645 645 645 645 645 645
645 7 645 645 645 8 645 645 645 645 645 645 27 645 645 645 645 28 14 645 18 645 645 645 645 645 645 17 645 645 645 645 645 645 645 645 645 15 12 645 645 645 645 645 645 16 645 645 21 645 645 645 645 645 645 645 3 11 645 645 23 8 645 8 645 645 0 645 645 645 645 645 645 645 645 645 645 645 645 12 18 645 18 26
645 645 6 645 645 645 11 645 645 9 36 645 645 34 5 645 645 645 645 645 645 10 645 645 645 645 645 645 9 645 645 645 645 645 645 645 645 645 645 645 645 645 645 645 645 645 645 645 645 645 24 11 645 645 52 645 645 645 35 645 645 645 645 645 645 34 645 0 645 645 645 645 3 645 645 645 29 645 645 645 645 645 645 645
645 36 645 645 645 645 645 8 40 645 645 645 34 645 645 33 645 645 645 645 645 645 645 645 645 645 21 15 645 645 22 25 645 645 42 645 645 645 645 645 645 645 645 37 23 645 12 6 20 645 32 645 35 35 645 645 645 23 645 39 28 26 14 645 645 645 645 645 0 645 645 645 645 42 33 645 31 645 645 21 645 645 645 21
24 645 645 15 645 645 645 645 645 645 645 645 645 645 645 645 30 645 645 25 645 645 645 5 645 645 645 645 645 645 645 645 645 645 645 16 20 645 645 645 645 25 23 645 645 645 645 645 645 30 645 645 645 645 40 645 645 645 645 645 645 645 645 645 13 645 645 645 645 0 49 30 645 645 645 645 645 31 645 645 645 645 645 645
25 24 645 40 645 645 645 645 645 645 645 38 645 645 645 645 42 24 20 645 16 645 645 46 645 6 645 645 645 8 645 645 645 36 645 34 645 645 21 43 645 645 645 645 645 13 645 645 645 645 645 645 645 645 645 645 645 645 645 645 645 645 645 645 645 645 645 645 645 49 0 22 645 645 645 16 645 645 645 645 645 645 21 645
10 645 645 18 645 18 645 645 645 645 645 645 645 645 645 645 22 645 8 32 645 645 645 28 645 20 645 645 645 28 645 645 645 645 645 18 645 23 10 645 645 645 24 645 645 15 645 645 645 23 645 645 645 645 645 645 645 645 645 645 29 645 645 645 30 645 645 645 645 30 22 0 645 645 645 7 645 645 645 645 21 645 4 645
645 645 8 645 645 645 9 645 645 11 645 645 645 645 7 645 645 645 645 645 645 8 645 645 645 645 645 645 8 645 645 645 645 645 645 645 645 645 645 645 645 645 645 52 645 645 645 645 645 645 23 13 645 645 645 645 645 645 37 645 645 645 645 645 645 35 645 3 645 645 645 645 0 645 645 645 28 645 645 645 645 645 645 645
645 33 645 645 645 645 645 645 645 645 645 29 10 645 645 645 645 24 645 645 33 645 645 645 645 645 645 645 645 645 645 20 645 34 45 645 645 645 645 8 645 645 645 645 645 645 645 645 24 645 645 645 44 7 645 645 645 31 645 14 645 645 645 645 645 645 645 645 42 645 645 645 645 0 645 645 645 645 645 645 645 5 645 645
645 645 645 645 645 645 34 27 645 645 9 645 645 5 645 8 645 645 645 645 645 37 16 645 23 645 21 645 31 645 42 645 645 645 645 645 645 645 645 645 15 645 645 56 37 645 24 28 645 645 23 32 645 645 645 645 645 645 19 645 645 645 21 645 645 7 645 645 33 645 645 645 645 645 0 645 31 645 645 645 645 645 645 21
15 18 645 25 645 17 645 645 645 645 645 645 645 645 645 645 26 32 5 645 18 645 645 36 645 13 645 645 645 22 645 645 645 48 645 25 645 645 6 645 645 645 30 645 645 7 645 645 645 27 645 645 645 645 645 645 645 645 645 645 645 645 645 10 645 645 645 645 645 645 16 7 645 645 645 0 645 645 645 645 24 645 6 645
645 645 35 645 645 645 19 23 41 645 645 645 645 34 645 37 645 645 645 645 645 21 645 645 645 645 645 645 20 645 20 51 645 645 645 645 645 645 645 645 645 645 645 28 12 645 645 28 645 645 9 35 43 645 645 47 645 645 645 645 645 645 32 645 645 35 645 29 31 645 645 645 28 645 31 645 0 645 36 645 645 645 645 645
645 645 645 27 4 645 645 645 645 55 24 645 645 645 645 23 24 645 645 11 645 645 18 645 28 645 645 645 645 645 645 645 10 645 645 645 19 645 645 645 18 11 19 645 645 645 645 645 645 24 645 645 645 645 11 645 645 645 26 645 645 645 645 645 18 645 645 645 645 31 645 645 645 645 645 645 645 0 645 645 645 645 645 645
645 645 645 645 645 645 50 42 12 645 645 645 645 645 645 645 645 645 645 645 645 51 645 645 645 645 645 645 53 645 23 46 645 645 24 645 645 645 645 645 645 645 645 8 27 645 645 645 645 645 45 645 21 645 645 13 645 645 645 52 645 645 645 645 645 645 645 645 645 645 645 645 645 645 645 645 36 645 0 645 645 645 645 645
645 18 645 645 645 12 645 645 645 645 645 645 31 645 645 645 22 645 645 645 645 645 645 645 16 645 15 6 645 645 645 32 645 645 645 645 645 11 645 645 28 645 645 645 645 645 15 21 18 23 645 645 645 645 645 645 15 10 645 645 15 6 17 19 645 645 12 645 21 645 645 645 645 645 645 645 645 645 645 0 15 645 27 15
29 645 645 21 645 10 645 645 645 645 645 645 645 645 645 645 8 645 19 21 645 645 645 645 11 645 16 19 645 645 645 645 22 645 645 645 645 4 18 645 20 645 15 645 645 27 645 645 645 8 645 645 645 645 645 645 645 23 645 645 8 13 645 18 28 645 18 645 645 645 645 21 645 645 645 24 645 645 645 15 0 645 19 15
645 645 645 645 645 645 645 645 645 645 645 34 10 645 645 645 645 28 645 645 645 645 645 645 645 645 645 645 645 645 49 15 645 645 40 645 645 645 645 13 645 645 645 645 645 645 645 645 21 645 645 645 39 3 645 645 645 645 645 9 645 645 645 645 645 645 645 645 645 645 645 645 645 5 645 645 645 645 645 645 645 0 645 645
13 20 645 20 645 15 645 645 645 645 645 645 645 645 645 645 21 645 4 32 23 645 645 645 30 19 645 645 645 645 645 645 645 645 645 22 645 21 6 645 645 645 24 645 645 12 645 645 645 22 645 645 645 645 645 645 19 645 645 645 28 21 645 10 32 645 18 645 645 645 21 4 645 645 645 6 645 645 645 27 19 645 0 645
645 645 645 645 645 21 645 21 645 645 645 645 44 26 645 16 19 645 645 645 645 645 31 645 6 645 1 14 645 645 645 42 26 645 645 645 645 14 645 645 15 645 645 645 645 645 9 17 30 19 645 645 645 645 645 645 645 24 645 645 8 18 8 645 645 645 26 645 21 645 645 645 645 645 21 645 645 645 645 15 15 645 645 0
EOF
